param set_len = 54;
param target_sum = 12221644179;
param values := [1] 851188935 [2] 607402325 [3] 491689833 [4] 198752478 [5] 1021639085 [6] 386809655 [7] 303094291 [8] 259840453 [9] 202608555 [10] 796796761 [11] 719315910 [12] 214446323 [13] 367240684 [14] 599309375 [15] 956594548 [16] 180343759 [17] 108046212 [18] 81276893 [19] 625990513 [20] 667463748 [21] 295228993 [22] 83966110 [23] 586610279 [24] 954075446 [25] 193430352 [26] 854233378 [27] 377824201 [28] 811600614 [29] 961508826 [30] 94311791 [31] 873121714 [32] 530389483 [33] 160994126 [34] 1025571790 [35] 603916602 [36] 1069576082 [37] 680297355 [38] 1060751601 [39] 612318568 [40] 290736283 [41] 158735164 [42] 208743233 [43] 70198607 [44] 82017754 [45] 107532369 [46] 456477969 [47] 765399064 [48] 296540255 [49] 134213649 [50] 29536452 [51] 100710111 [52] 8392377 [53] 309236290 [54] 1051147576 ;
